Route #1: 39 15 16 30 66 40 5 9 43 34 28 10 61 6 41
Route #2: 21 35 29 37 3 50 27 7 63 51 48 11 26 38 49 17 65 13 22 4 64
Route #3: 33 59
Route #4: 55 14 20 32 23 36 62 31 12 8 46 44 57 60 45 47 25
Route #5: 2 42 24 54 18 19 53 56 52 58
Route #6: 1
Route #7: 
Route #8: 
Route #9: 
cost 1549.762202304958
